\ Model Furniture
\ LP format - for model browsing. Use MPS format to capture full model detail.
Maximize
  45 chairs + 80 tables
Subject To
 mahagony: 5 chairs + 20 tables <= 400
 labour: 10 chairs + 15 tables <= 450
 mahagony: 5 chairs + 20 tables <= 400
 labour: 10 chairs + 15 tables <= 450
Bounds
End
